files/upTests/tupley3/0003.eprime.solution
language ESSENCE' 1.0
$ minion Nodes: 3
$ minion TotalTime: 0.00094
$ Savile Row TotalTime: 0.708
letting pain_SetOccurrence be [[[true, false;int(6,8)], 
[false, true;int(6,8)];int(3..4)], 
[[false, true;int(6,8)], 
[false, true;int(6,8)];int(3..4)];int(1..2)]
letting pain_SetExplicit be [[[6;int(1..1)], 
[8;int(1..1)];int(3..4)], 
[[8;int(1..1)], 
[8;int(1..1)];int(3..4)];int(1..2)]
